; benchmark generated from python API
(set-info :status unknown)
(declare-fun L_1 () Real)
(declare-fun S_1 () Real)
(declare-fun A_1 () Real)
(declare-fun L_3 () Real)
(declare-fun S_3 () Real)
(declare-fun A_3 () Real)
(declare-fun L_2 () Real)
(declare-fun S_2 () Real)
(declare-fun A_2 () Real)
(declare-fun B () Real)
(declare-fun S_4 () Real)
(declare-fun L_4 () Real)
(declare-fun A_4 () Real)
(declare-fun L_0 () Real)
(declare-fun S_0 () Real)
(declare-fun A_0 () Real)
(assert
 (let (($x1114 (<= (+ A_2 (* (- 1.0) S_3) (* (- 1.0) B) (* (- 1.0) L_2)) 0.0)))
 (let (($x34 (>= L_0 0.0)))
 (let (($x706 (>= B 5.0)))
 (let ((?x399 (* (- 1.0) L_4)))
 (let ((?x394 (+ L_3 ?x399)))
 (let (($x56613 (<= 0.0 ?x394)))
 (let ((?x455 (* (- 1.0) B)))
 (let ((?x1523 (* 2.0 L_3)))
 (let ((?x1680 (* (- 2.0) A_3)))
 (let (($x39228 (<= (+ A_4 ?x1680 ?x1523 S_2 ?x455 ?x399) 0.0)))
 (let (($x28738 (<= (+ (* (- 1.0) A_4) (* 2.0 S_2) (* (- 1.0) S_1) B L_4) 0.0)))
 (let ((?x972 (* (- 1.0) S_0)))
 (let ((?x34533 (+ (* (- (/ 2.0 3.0)) A_4) (* (/ 5.0 3.0) S_1) ?x972 (* (/ 2.0 3.0) B) (* (/ 2.0 3.0) L_4))))
 (let (($x34546 (<= ?x34533 0.0)))
 (let (($x29687 (<= (+ (* (- 1.0) A_4) A_2 (* (- 1.0) L_2) S_1 ?x972 B L_4) 0.0)))
 (let ((?x1393 (* (- (/ 1.0 2.0)) L_4)))
 (let ((?x1406 (* (- (/ 1.0 2.0)) L_2)))
 (let ((?x1401 (* (- (/ 1.0 2.0)) B)))
 (let ((?x1411 (* (/ 1.0 2.0) A_2)))
 (let ((?x335 (* (- 1.0) A_3)))
 (let ((?x624 (* (/ 1.0 2.0) A_4)))
 (let (($x1457 (<= (+ ?x624 ?x335 ?x1411 ?x1401 ?x1406 L_3 ?x1393) 0.0)))
 (let ((?x1703 (* 2.0 S_2)))
 (let ((?x869 (* (- 1.0) A_0)))
 (let ((?x331 (* (- 1.0) A_4)))
 (let ((?x2123 (* 2.0 L_4)))
 (let ((?x1432 (* 2.0 B)))
 (let ((?x1483 (* (- 2.0) L_3)))
 (let ((?x1240 (* 2.0 A_3)))
 (let ((?x2092 (* (- 2.0) A_4)))
 (let (($x140454 (or (<= (+ ?x2092 ?x1240 ?x869 ?x1483 S_2 ?x1432 L_0 ?x2123) 0.0) (<= (+ ?x331 ?x869 ?x1703 B L_0 L_4) 0.0) $x56613)))
 (let ((?x1425 (* (/ 3.0 2.0) B)))
 (let (($x33562 (<= (+ (* (- (/ 3.0 2.0)) A_4) (* (/ 5.0 2.0) S_2) ?x972 ?x1425 (* (/ 3.0 2.0) L_4)) 0.0)))
 (let ((?x2099 (* 3.0 L_4)))
 (let ((?x1684 (* 3.0 B)))
 (let ((?x1789 (* (- 3.0) L_3)))
 (let ((?x1787 (* 3.0 A_3)))
 (let ((?x2108 (* (- 3.0) A_4)))
 (let (($x142577 (or (<= (+ ?x2092 (* 3.0 S_3) (* (- 1.0) S_2) ?x1432 ?x2123) 0.0) $x56613)))
 (let ((?x2140 (* 4.0 L_4)))
 (let ((?x5943 (* 4.0 B)))
 (let ((?x2137 (* (- 4.0) A_4)))
 (let (($x33047 (<= (+ ?x2092 (* (- 1.0) A_1) L_1 (* 3.0 S_3) ?x1432 ?x2123) 0.0)))
 (let (($x33972 (<= (+ (* 2.0 A_2) (* (- 2.0) L_2) (* (- 2.0) S_4) S_1 ?x972) 0.0)))
 (let (($x852 (<= (+ A_3 (* (- 1.0) S_4) (* (- 1.0) L_3)) 0.0)))
 (let (($x55055 (or $x852 (<= (+ (* (- 1.0) S_4) (* 2.0 S_1) ?x972) 0.0) $x33972)))
 (let (($x33778 (<= (+ (* (- (/ 1.0 2.0)) A_1) (* (/ 1.0 2.0) L_1) (* (- (/ 1.0 2.0)) S_4) S_2) 0.0)))
 (let (($x33983 (<= (+ A_2 ?x869 (* (- 1.0) L_2) (* (- 1.0) S_4) S_1 L_0) 0.0)))
 (let (($x56037 (or $x852 (<= (+ ?x869 (* (- (/ 1.0 2.0)) S_4) (* (/ 3.0 2.0) S_1) L_0) 0.0) $x33983)))
 (let (($x62335 (<= (+ (* (- (/ 1.0 3.0)) S_4) (* (/ 1.0 3.0) S_0)) (- 5.0))))
 (let (($x140936 (or $x852 (not (<= (+ (* (- 1.0) A_2) A_1 (* (- 1.0) L_1) L_2) (- 5.0))) $x62335 (<= (+ (* (/ 1.0 2.0) A_1) (* (- (/ 1.0 2.0)) L_1) (* (- (/ 1.0 2.0)) S_4)) (- 5.0)))))
 (let (($x15108 (<= (+ A_2 (* (- 1.0) S_4) (* (- 1.0) L_2)) (- 5.0))))
 (let (($x304 (<= (+ (* (- 1.0) A_2) A_1 (* (- 1.0) L_1) L_2) (- 5.0))))
 (let ((?x1525 (* 3.0 S_2)))
 (let ((?x1064 (* 2.0 L_1)))
 (let ((?x916 (* (- 2.0) A_1)))
 (let ((?x412 (* (- 1.0) L_3)))
 (let ((?x343 (* (- 1.0) A_1)))
 (let (($x142285 (or (<= (+ ?x331 A_3 ?x343 ?x412 S_2 L_1 B L_4) 0.0) (<= (+ ?x331 ?x916 ?x1064 ?x1525 B L_4) 0.0) $x56613)))
 (let ((?x10229 (* (- (/ 2.0 3.0)) L_4)))
 (let ((?x6813 (* (- (/ 2.0 3.0)) B)))
 (let ((?x34540 (* (/ 1.0 3.0) S_1)))
 (let ((?x351 (* (- 1.0) S_4)))
 (let ((?x11629 (* (/ 2.0 3.0) A_4)))
 (let (($x503 (<= (+ ?x624 ?x1411 ?x351 ?x1401 ?x1406 ?x1393) 0.0)))
 (let (($x858 (<= (+ A_2 (* (- 1.0) S_3) (* (- 1.0) L_2)) 0.0)))
 (let (($x142714 (or $x858 (<= (+ A_4 ?x335 L_3 (* (- 1.0) S_3) S_1 ?x455 ?x399) 0.0))))
 (let ((?x12611 (* (/ 1.0 3.0) L_4)))
 (let ((?x6939 (* (/ 1.0 3.0) B)))
 (let ((?x9759 (* (- (/ 1.0 3.0)) A_4)))
 (let ((?x2372 (* 2.0 L_0)))
 (let ((?x2619 (* 2.0 S_1)))
 (let ((?x425 (* (- 1.0) L_2)))
 (let ((?x2371 (* (- 2.0) A_0)))
 (let (($x145237 (or (<= (+ ?x331 A_2 ?x2371 ?x425 ?x2619 B ?x2372 L_4) 0.0) (<= (+ ?x9759 ?x869 (* (/ 4.0 3.0) S_1) ?x6939 L_0 ?x12611) 0.0) (<= (+ ?x331 A_3 ?x869 ?x412 S_1 B L_0 L_4) 0.0) $x56613)))
 (let (($x62493 (<= (+ (* (- 1.0) A_2) L_2 S_1) (- 5.0))))
 (let (($x59437 (<= (+ ?x331 A_2 ?x425 B L_4) (- 10.0))))
 (let (($x57324 (<= (+ ?x331 A_3 ?x412 B L_4) (- 5.0))))
 (let ((?x33459 (* (- (/ 1.0 4.0)) L_4)))
 (let ((?x33477 (* (- (/ 1.0 4.0)) B)))
 (let ((?x33612 (* (/ 3.0 4.0) S_0)))
 (let ((?x373 (* (- 1.0) S_2)))
 (let ((?x32692 (* (/ 1.0 4.0) A_4)))
 (let (($x864 (<= (+ A_1 ?x373 (* (- 1.0) L_1)) 0.0)))
 (let (($x62500 (not $x62493)))
 (let ((?x29860 (* (/ 1.0 4.0) S_0)))
 (let (($x62483 (<= (+ (* (- (/ 1.0 4.0)) A_4) ?x29860 (* (/ 1.0 4.0) B) (* (/ 1.0 4.0) L_4)) (- 5.0))))
 (let (($x144061 (or $x56613 $x57324 $x59437 $x62483 (<= (+ ?x331 A_1 (* (- 1.0) L_1) B L_4) (- 15.0)))))
 (let (($x143796 (or $x1457 (<= (+ ?x2092 ?x1240 ?x1483 S_1 ?x972 ?x1432 ?x2123) 0.0) $x34546 $x56613)))
 (let (($x887 (= (+ L_1 (* (- 1.0) L_0)) 0.0)))
 (let (($x143855 (or $x887 (<= (+ ?x2092 ?x343 (* 3.0 S_3) ?x1684 L_1 ?x2123) 0.0) $x56613)))
 (let (($x140695 (or $x887 (<= (+ ?x331 A_3 ?x343 ?x412 S_2 ?x1432 L_1 L_4) 0.0) (<= (+ ?x331 ?x916 ?x1525 ?x1684 ?x1064 L_4) 0.0) $x56613)))
 (let ((?x681 (+ L_2 ?x412)))
 (let (($x56893 (<= 0.0 ?x681)))
 (let ((?x2368 (* 2.0 S_0)))
 (let ((?x339 (* (- 1.0) A_2)))
 (let ((?x1097 (* (- 2.0) L_1)))
 (let ((?x1381 (* (- 2.0) S_1)))
 (let ((?x1147 (* 2.0 A_1)))
 (let ((?x3442 (* (- 4.0) L_1)))
 (let ((?x1790 (* (- 3.0) B)))
 (let ((?x3466 (* (- 3.0) S_1)))
 (let ((?x3468 (* 4.0 A_1)))
 (let (($x1635 (<= (+ ?x331 A_3 A_1 ?x412 (* (- 1.0) S_1) (* (- 1.0) L_1) L_4) 0.0)))
 (let (($x142555 (or $x1635 (<= (+ ?x331 ?x3468 ?x3466 ?x1790 ?x3442 L_4) 0.0) (<= (+ ?x331 A_2 ?x1147 ?x425 ?x1381 ?x455 ?x1097 L_4) 0.0) $x56613)))
 (let (($x3498 (<= (+ ?x331 A_3 A_1 ?x869 ?x412 L_0 (* (- 1.0) L_1) L_4) 0.0)))
 (let (($x3490 (<= (+ ?x331 ?x3468 (* (- 3.0) A_0) ?x1790 (* 3.0 L_0) ?x3442 L_4) 0.0)))
 (let (($x141157 (or $x3490 $x3498 (<= (+ ?x331 A_2 ?x1147 ?x2371 ?x425 ?x455 ?x2372 ?x1097 L_4) 0.0) $x56613)))
 (let (($x33591 (<= (+ (* (/ 3.0 4.0) A_4) ?x351 ?x29860 (* (- (/ 3.0 4.0)) B) (* (- (/ 3.0 4.0)) L_4)) 0.0)))
 (let ((?x2097 (* (- 2.0) L_4)))
 (let ((?x1429 (* (- 2.0) B)))
 (let ((?x1749 (* (- 3.0) S_4)))
 (let ((?x438 (* (- 1.0) L_1)))
 (let ((?x2120 (* 2.0 A_4)))
 (let (($x67605 (or (<= (+ ?x2108 ?x869 (* 4.0 S_3) ?x1684 L_0 ?x2099) 0.0) $x56613)))
 (let (($x1687 (<= (+ (* (- 3.0) A_3) (* 4.0 S_2) ?x972 ?x1684 (* 3.0 L_3)) 0.0)))
 (let (($x57220 (not $x56893)))
 (let (($x143447 (or $x887 (<= (+ ?x2092 ?x1787 ?x343 L_1 (* (- 3.0) L_2) ?x2123) 0.0) $x56613 $x57220)))
 (let ((?x12601 (* (- (/ 1.0 3.0)) L_4)))
 (let ((?x6933 (* (- (/ 1.0 3.0)) B)))
 (let ((?x34535 (* (/ 2.0 3.0) S_1)))
 (let ((?x362 (* (- 1.0) S_3)))
 (let ((?x12055 (* (/ 1.0 3.0) A_4)))
 (let (($x144761 (or $x858 (<= (+ ?x624 ?x362 (* (/ 1.0 2.0) S_0) ?x1401 ?x1393) 0.0) (<= (+ A_4 ?x1147 ?x1097 (* (- 3.0) S_3) ?x455 ?x399) 0.0))))
 (let (($x6370 (<= (+ (* (- 4.0) A_1) S_4 (* 3.0 S_0) ?x5943 (* 4.0 L_1)) 0.0)))
 (let (($x144206 (or (= (+ ?x2092 ?x1787 ?x343 L_1 ?x455 ?x1789 ?x2123) 0.0) $x56613 (not (<= 0.0 (+ ?x2092 ?x1787 ?x343 ?x455 L_1 ?x1789 ?x2123))))))
 (let (($x57382 (<= 0.0 (+ ?x2092 ?x1787 ?x343 ?x455 L_1 ?x1789 ?x2123))))
 (let (($x55629 (<= 0.0 (+ ?x331 ?x1240 ?x339 ?x455 L_2 ?x1483 L_4))))
 (let ((?x2134 (* (- 3.0) L_4)))
 (let ((?x2081 (* 4.0 L_3)))
 (let ((?x2118 (* (- 4.0) A_3)))
 (let ((?x2079 (* 3.0 A_4)))
 (let (($x57781 (<= (+ (* (- (/ 1.0 3.0)) A_3) (* (/ 1.0 3.0) S_0) ?x6939 (* (/ 1.0 3.0) L_3)) (- 5.0))))
 (let (($x56146 (<= (+ ?x335 A_2 ?x425 B L_3) (- 5.0))))
 (let ((?x2610 (* (/ 1.0 2.0) L_3)))
 (let ((?x1359 (* (/ 1.0 2.0) B)))
 (let ((?x2606 (* (/ 1.0 2.0) S_1)))
 (let ((?x2608 (* (- (/ 1.0 2.0)) A_3)))
 (let (($x49943 (<= 0.0 (+ (* (/ 1.0 2.0) A_3) ?x339 ?x2606 ?x1401 L_2 (* (- (/ 1.0 2.0)) L_3)))))
 (let (($x69554 (or (<= (+ ?x2608 ?x869 (* (/ 3.0 2.0) S_1) ?x1359 L_0 ?x2610) 0.0) (<= (+ ?x335 A_2 ?x869 ?x425 S_1 B L_0 L_3) 0.0) $x56893)))
 (let ((?x1685 (* 3.0 L_3)))
 (let ((?x1740 (* 2.0 S_4)))
 (let ((?x1682 (* (- 3.0) A_3)))
 (let ((?x6927 (* (/ 1.0 3.0) S_0)))
 (let (($x6897 (<= (+ (* (- (/ 4.0 3.0)) A_3) S_4 ?x6927 (* (/ 4.0 3.0) B) (* (/ 4.0 3.0) L_3)) 0.0)))
 (let (($x2879 (<= (+ ?x1680 A_2 ?x425 S_4 ?x1432 ?x1523) 0.0)))
 (let (($x6936 (<= (+ (* (/ 1.0 3.0) A_3) ?x373 (* (/ 2.0 3.0) S_0) ?x6933 (* (- (/ 1.0 3.0)) L_3)) 0.0)))
 (let (($x68364 (or $x864 (<= (+ A_4 ?x339 L_2 (* (- 2.0) S_2) ?x2368 ?x455 ?x399) 0.0))))
 (let (($x885 (= (+ L_2 ?x438) 0.0)))
 (let (($x69999 (or $x885 (<= (+ ?x335 ?x339 A_1 L_3 S_4 ?x438 B L_2) 0.0) (not (<= 0.0 (+ ?x1411 ?x343 (* (/ 1.0 2.0) S_0) ?x1401 L_1 ?x1406))))))
 (let (($x20674 (<= (+ ?x2108 ?x1787 A_2 ?x1789 ?x972 ?x1432 ?x425 ?x2099) 0.0)))
 (let ((?x10189 (* (- 5.0) L_2)))
 (let ((?x2442 (* (- 2.0) S_0)))
 (let ((?x12620 (* 5.0 A_2)))
 (let (($x11214 (<= (+ ?x2108 ?x12620 ?x2442 ?x1429 ?x10189 ?x2099) 0.0)))
 (let (($x61781 (<= 0.0 (+ ?x1682 (* 4.0 A_2) ?x972 (* (- 4.0) B) (* (- 4.0) L_2) ?x1685))))
 (let (($x59481 (<= 0.0 (+ ?x331 (* 3.0 A_2) ?x916 ?x1429 ?x1064 (* (- 3.0) L_2) L_4))))
 (let (($x59482 (not $x59481)))
 (let (($x58116 (<= 0.0 (+ ?x335 (* 2.0 A_2) ?x343 L_1 ?x1429 (* (- 2.0) L_2) L_3))))
 (let (($x11716 (<= (+ A_4 (* (- 3.0) A_2) ?x2619 ?x1432 (* 3.0 L_2) ?x399) 0.0)))
 (let ((?x9148 (+ ?x331 A_3 A_2 ?x343 ?x412 L_1 ?x425 L_4)))
 (let (($x58524 (<= 0.0 ?x9148)))
 (let (($x141736 (or $x885 (<= (+ ?x2120 ?x1680 ?x339 ?x1523 S_0 ?x455 L_2 ?x2097) 0.0) $x58524)))
 (let ((?x3447 (* (- 5.0) L_1)))
 (let ((?x3450 (* (- 3.0) S_0)))
 (let ((?x3339 (* 5.0 A_1)))
 (let (($x141278 (or (<= (+ ?x2092 ?x3339 ?x3450 ?x1790 ?x3447 ?x2123) 0.0) (<= (+ ?x2092 ?x1240 A_1 ?x1483 ?x972 B ?x438 ?x2123) 0.0) (<= (+ ?x331 A_2 A_1 ?x425 ?x972 ?x438 L_4) 0.0) $x56613)))
 (let (($x57219 (or $x885 (<= (+ ?x331 ?x339 (* 2.0 S_3) ?x1432 L_2 L_4) 0.0) $x56613)))
 (let (($x142336 (or $x858 (<= (+ (* (/ 1.0 2.0) A_3) ?x362 ?x2606 ?x1401 (* (- (/ 1.0 2.0)) L_3)) 0.0))))
 (let (($x23693 (<= (+ ?x1680 (* 2.0 A_2) (* (- 2.0) L_2) S_1 ?x972 ?x1432 ?x1523) 0.0)))
 (let (($x2142 (<= (+ ?x2137 (* 5.0 A_3) ?x972 ?x455 (* (- 5.0) L_3) ?x2140) 0.0)))
 (let (($x9452 (<= (+ (* (- 3.0) A_2) ?x1147 ?x1097 S_4 ?x1684 (* 3.0 L_2)) 0.0)))
 (let (($x141990 (or $x885 (<= (+ (* (- 2.0) A_2) S_4 S_0 ?x1432 (* 2.0 L_2)) 0.0) $x9452)))
 (let (($x142436 (or (<= (+ (* (- (/ 3.0 2.0)) A_3) S_4 ?x2606 ?x1425 (* (/ 3.0 2.0) L_3)) 0.0) $x2879 $x56893)))
 (let (($x11598 (<= (+ A_4 (* (- 2.0) A_2) S_0 B (* 2.0 L_2) ?x399) 0.0)))
 (let (($x56756 (not $x56613)))
 (let (($x9275 (<= (+ A_4 (* (- 3.0) A_2) ?x1147 ?x1097 ?x1432 (* 3.0 L_2) ?x412) 0.0)))
 (let (($x7593 (<= (+ ?x331 (* 2.0 A_2) ?x869 ?x455 L_0 (* (- 2.0) L_2) L_4) 0.0)))
 (let (($x145589 (or $x7593 (<= (+ ?x2092 ?x1240 A_2 ?x869 ?x1483 B L_0 ?x425 ?x2123) 0.0) $x56613)))
 (let ((?x1172 (* (- 3.0) L_2)))
 (let ((?x1593 (* (- 2.0) S_2)))
 (let ((?x1171 (* 3.0 A_2)))
 (let (($x139783 (or (<= (+ ?x331 ?x1171 ?x1593 ?x1429 ?x1172 L_4) 0.0) (<= (+ ?x331 A_3 A_2 ?x412 ?x373 ?x425 L_4) 0.0) $x56613)))
 (let (($x140424 (or $x1457 $x1635 $x56613 (not (<= 0.0 (+ ?x339 ?x1147 (* (- 1.0) S_1) ?x1429 ?x1097 L_2))))))
 (let ((?x1135 (* (- 2.0) L_2)))
 (let ((?x384 (* (- 1.0) S_1)))
 (let ((?x471 (* 2.0 A_2)))
 (let (($x139998 (or (<= (+ ?x331 ?x471 ?x384 ?x455 ?x1135 L_4) 0.0) (<= (+ ?x2092 ?x1240 A_2 ?x1483 ?x384 B ?x425 ?x2123) 0.0) $x56613)))
 (let ((?x3448 (* 4.0 L_1)))
 (let ((?x3446 (* 3.0 S_0)))
 (let ((?x3460 (* (- 4.0) A_1)))
 (let (($x54413 (<= 0.0 (+ ?x339 ?x1147 ?x869 ?x1429 L_0 ?x1097 L_2))))
 (let ((?x3994 (* (- (/ 3.0 2.0)) L_1)))
 (let ((?x1203 (* (- (/ 3.0 2.0)) B)))
 (let ((?x4049 (* (- (/ 1.0 2.0)) S_4)))
 (let ((?x4052 (* (/ 3.0 2.0) A_1)))
 (let (($x142020 (or (= (+ ?x331 ?x1171 ?x916 ?x1064 ?x1429 ?x1172 L_4) 0.0) $x56613 $x58116 $x59482)))
 (let (($x62740 (<= (+ (* (- (/ 1.0 2.0)) A_4) (* (/ 1.0 2.0) S_2) ?x1359 (* (/ 1.0 2.0) L_4)) (- 5.0))))
 (let (($x61763 (<= (- 5.0) (+ ?x343 S_0 L_1))))
 (let (($x6419 (<= (+ (* (- (/ 3.0 2.0)) A_2) S_3 (* (/ 1.0 2.0) S_0) ?x1425 (* (/ 3.0 2.0) L_2)) 0.0)))
 (let (($x6323 (<= (+ (* (- 2.0) A_2) A_1 S_3 ?x438 ?x1432 (* 2.0 L_2)) 0.0)))
 (let (($x60696 (<= 0.0 (+ ?x1411 ?x343 (* (/ 1.0 2.0) S_0) ?x1401 L_1 ?x1406))))
 (let ((?x1415 (* (/ 1.0 2.0) L_2)))
 (let ((?x3650 (* (/ 1.0 2.0) S_0)))
 (let ((?x1361 (* (- (/ 1.0 2.0)) A_2)))
 (let (($x140941 (or $x858 (<= (+ ?x2120 ?x1680 ?x1523 ?x362 S_0 ?x1429 ?x2097) 0.0) (<= 0.0 (+ ?x331 A_3 ?x343 ?x412 S_3 B L_1 L_4)))))
 (let (($x145967 (or (<= (+ A_2 ?x425 ?x362) 0.0) (<= (+ ?x335 A_1 L_3 S_4 ?x362 ?x438) 0.0) (not (<= 0.0 (+ ?x343 (* (/ 1.0 2.0) S_3) ?x3650 L_1))))))
 (let (($x57336 (<= 0.0 (+ ?x343 (* (/ 1.0 2.0) S_3) ?x3650 L_1))))
 (let (($x63310 (or $x858 (<= (+ ?x335 L_3 S_4 (* (- (/ 1.0 2.0)) S_3) ?x3650) 0.0) $x57336)))
 (let (($x38904 (or $x858 (<= (+ ?x1147 ?x1097 S_4 (* (- 3.0) S_3)) 0.0) (<= (+ (* (/ 1.0 2.0) S_4) ?x362 ?x3650) 0.0))))
 (let (($x140963 (or $x858 (<= (+ (* (/ 2.0 3.0) A_3) ?x362 ?x6927 ?x6813 (* (- (/ 2.0 3.0)) L_3)) 0.0) (<= 0.0 (+ ?x335 ?x343 (* 2.0 S_3) B L_1 L_3)))))
 (let (($x139757 (or (<= (+ A_4 (* (- 2.0) S_4) S_2 ?x455 ?x412) 0.0) $x852 $x56756)))
 (let ((?x1143 (* 3.0 L_2)))
 (let ((?x2418 (* (- 2.0) L_0)))
 (let ((?x1151 (* (- 3.0) A_2)))
 (let (($x895 (not $x887)))
 (let (($x67141 (or $x852 (<= (+ A_4 A_2 (* (- 2.0) S_4) ?x1429 ?x425 ?x399) 0.0))))
 (let (($x56831 (not $x55629)))
 (let (($x139798 (or $x852 (<= (+ (* (/ 1.0 2.0) A_1) ?x4049 ?x1401 (* (- (/ 1.0 2.0)) L_1)) (- 5.0)))))
 (let (($x72113 (or $x852 $x887 (<= (+ (* (- (/ 1.0 2.0)) A_1) ?x4049 S_2 ?x1359 (* (/ 1.0 2.0) L_1)) 0.0))))
 (let (($x146135 (or (<= (+ ?x335 ?x1147 ?x972 ?x455 ?x1097 L_3) 0.0) (<= (+ ?x1680 ?x471 A_1 ?x1135 ?x972 B ?x438 ?x1523) 0.0) $x56893)))
 (let (($x144355 (or $x895 (<= (+ ?x2120 ?x1682 A_1 (* (- 1.0) L_0) ?x1685 ?x2097) 0.0) $x55629 $x56893)))
 (let ((?x1125 (* 2.0 L_2)))
 (let ((?x1155 (* (- 3.0) L_1)))
 (let ((?x1154 (* 3.0 A_1)))
 (let ((?x1085 (* (- 2.0) A_2)))
 (let (($x67852 (or $x852 (<= (+ ?x471 A_1 ?x1135 (* (- 2.0) S_4) ?x972 ?x455 ?x438) 0.0) (not (<= 0.0 (+ ?x1085 ?x1154 ?x972 ?x1790 ?x1155 ?x1125))))))
 (let (($x139770 (or $x852 (<= (+ ?x4052 ?x4049 ?x384 ?x1203 ?x3994) 0.0) (<= (+ A_2 A_1 ?x425 ?x351 ?x384 ?x455 ?x438) 0.0))))
 (let (($x139740 (or $x852 (<= (+ A_4 A_2 (* (- 2.0) S_4) ?x1429 ?x425 ?x412) 0.0) $x56756)))
 (let (($x145713 (or (<= (+ ?x331 ?x339 L_2 (* 2.0 S_3) B L_4) 0.0) $x56613)))
 (let (($x2151 (<= (+ ?x2108 (* 4.0 A_3) ?x869 ?x455 L_0 (* (- 4.0) L_3) ?x2099) 0.0)))
 (let (($x2091 (<= (+ ?x2108 (* 4.0 A_3) ?x384 ?x455 (* (- 4.0) L_3) ?x2099) 0.0)))
 (let (($x140068 (or $x885 (<= (+ ?x1361 ?x3650 ?x1359 ?x1415) (- 5.0)) (<= (+ ?x339 A_1 ?x438 B L_2) (- 5.0)))))
 (let (($x1033 (<= (+ A_3 (* (- 3.0) A_1) ?x2368 ?x1432 (* 3.0 L_1) ?x412) 0.0)))
 (let (($x57837 (<= 0.0 (+ ?x2092 ?x1787 ?x343 L_1 ?x412))))
 (let (($x57030 (<= 0.0 (+ A_3 ?x1085 A_1 ?x1429 ?x438 ?x1125 ?x412))))
 (let (($x10511 (<= (+ (* 4.0 A_2) ?x1749 ?x972 (* (- 4.0) B) (* (- 4.0) L_2)) 0.0)))
 (let (($x67224 (or $x852 (<= (+ ?x1171 ?x869 (* (- 2.0) S_4) ?x1790 L_0 ?x1172) 0.0))))
 (let (($x140971 (or $x858 (<= (+ A_4 ?x335 A_1 L_3 ?x362 ?x1429 ?x438 ?x399) 0.0))))
 (let (($x56972 (not $x54413)))
 (let (($x142004 (or $x852 (<= (+ A_2 A_1 ?x869 ?x425 ?x351 ?x455 L_0 ?x438) 0.0) $x56972)))
 (let ((?x656 (+ L_1 ?x425)))
 (let (($x284 (<= 0.0 ?x656)))
 (let (($x282 (not $x284)))
 (let (($x140338 (or $x282 $x852 (<= (+ ?x624 ?x1411 ?x351 ?x455 (* (- (/ 1.0 2.0)) L_1) ?x1393) 0.0))))
 (let (($x69021 (or $x887 (<= (+ (* (- 3.0) A_1) S_3 ?x2368 ?x1684 (* 3.0 L_1)) 0.0))))
 (let (($x146037 (or (<= (+ ?x335 ?x1154 ?x1381 ?x1429 ?x1155 L_3) 0.0) (<= (+ ?x335 A_2 A_1 ?x425 ?x384 ?x438 L_3) 0.0) $x56893)))
 (let (($x140209 (or (<= (+ ?x335 A_2 A_1 ?x869 ?x425 L_0 ?x438 L_3) 0.0) $x56893 $x56972)))
 (let (($x296 (<= 0.0 (+ ?x335 ?x471 ?x343 ?x455 L_1 ?x1135 L_3))))
 (let (($x294 (not $x296)))
 (let (($x5435 (<= (+ ?x1682 (* 4.0 A_2) ?x972 ?x455 (* (- 4.0) L_2) ?x1685) 0.0)))
 (let (($x140984 (or $x885 $x895 (<= (+ A_3 ?x1085 A_1 (* (- 1.0) L_0) ?x1125 ?x412) 0.0))))
 (let ((?x4069 (* (- (/ 1.0 2.0)) L_1)))
 (let ((?x3779 (* (/ 1.0 2.0) S_4)))
 (let ((?x4014 (* (/ 1.0 2.0) A_1)))
 (let (($x140780 (or $x852 (<= (+ ?x1147 ?x351 ?x972 ?x1429 ?x1097) 0.0) (<= 0.0 (+ ?x339 ?x4014 ?x3779 ?x1401 ?x4069 L_2)))))
 (let (($x141657 (or $x858 (<= (+ A_3 A_1 (* (- 2.0) S_3) ?x1429 ?x438 ?x412) 0.0))))
 (let (($x68589 (or $x296 $x885 $x887 (= (+ ?x331 ?x1171 ?x916 ?x1064 ?x1172 L_4) 0.0) $x56613)))
 (let ((?x4302 (+ ?x331 A_3 A_2 ?x343 ?x412 B L_1 ?x425 L_4)))
 (let (($x4276 (<= ?x4302 0.0)))
 (let (($x67675 (or $x858 (<= (+ A_4 ?x1147 (* (- 3.0) S_3) ?x1790 ?x1097 ?x399) 0.0))))
 (let (($x68087 (or $x887 (= (+ ?x2092 ?x1787 ?x343 L_1 ?x1789 ?x2123) 0.0) $x55629 $x56613 $x56893)))
 (let (($x57148 (or (not (= (+ L_4 ?x412) 0.0)) $x56893 (<= (+ A_4 ?x1680 S_2 B L_3) 0.0))))
 (let (($x96 (>= S_1 S_0)))
 (let (($x99 (>= S_2 S_1)))
 (let (($x102 (>= S_3 S_2)))
 (let (($x105 (>= S_4 S_3)))
 (let (($x107 (>= A_1 A_0)))
 (let (($x108 (>= A_2 A_1)))
 (let (($x109 (>= A_3 A_2)))
 (let (($x110 (>= A_4 A_3)))
 (and $x110 $x109 $x108 $x107 $x105 $x102 $x99 $x96 (or (not (<= 0.0 (+ L_0 ?x438))) $x887) (or $x284 (<= (+ ?x339 S_2 B L_2) 0.0)) (or $x887 (<= (+ ?x343 S_1 B L_1) 0.0)) (or $x282 $x885) (or $x56893 (<= (+ ?x335 S_3 B L_3) 0.0)) $x57148 (or $x56893 (<= (+ ?x335 S_2 B L_3) (- 5.0))) (<= (+ A_3 ?x351 ?x455 ?x412) 0.0) (or $x56893 (<= (+ A_4 ?x1680 S_2 B ?x1523 ?x399) 0.0)) (or (= (+ L_4 ?x412) 0.0) $x56756) (or $x56613 (<= (+ ?x331 A_3 ?x412 L_4) (- 5.0))) (or (<= (+ ?x331 ?x1240 ?x362 ?x455 ?x1483 L_4) 0.0) $x56613) (or (<= (+ ?x331 S_4 B L_4) 0.0) $x56613) (<= (+ A_1 ?x373 ?x455 ?x438) 0.0) (or $x282 (<= (+ A_4 ?x1680 A_2 ?x438 ?x1523 ?x399) 0.0) $x56893) $x68087 (or (= (+ L_3 ?x425) 0.0) $x57220) (or $x852 (<= (+ ?x351 S_2) (- 5.0))) (or $x852 $x887 (<= (+ ?x471 ?x343 ?x351 ?x455 L_1 ?x1135) 0.0)) (or $x885 (<= (+ ?x339 ?x1147 ?x384 ?x455 ?x1097 L_2) 0.0)) (or $x282 $x296 $x887 (<= (+ ?x331 ?x1171 ?x916 ?x438 L_4) 0.0) $x56613) (or $x304 $x885) (or $x885 (<= (+ ?x1085 ?x1154 ?x972 ?x455 ?x1155 ?x1125) 0.0)) (<= (+ A_1 ?x362 ?x455 ?x438) (- 5.0)) (or $x887 (<= (+ ?x916 S_2 S_0 ?x1432 ?x1064) 0.0)) (or $x885 (<= (+ ?x339 ?x1147 ?x869 ?x455 L_0 ?x1097 L_2) 0.0)) (or $x887 (<= (+ ?x343 S_0 B L_1) (- 5.0))) (or $x864 (<= (+ ?x373 S_0) (- 5.0))) (or $x56893 (<= (+ ?x335 A_2 ?x425 L_3) (- 5.0))) (or (<= (+ A_2 ?x916 S_0 B ?x1064 ?x425) 0.0) $x887) (or $x887 (<= (+ A_4 ?x335 ?x343 L_3 S_0 L_1 ?x399) 0.0)) (or (<= (+ ?x1680 A_2 S_4 B ?x425 ?x1523) 0.0) $x56893) (or (<= 0.0 (+ ?x335 ?x471 ?x343 L_1 ?x425)) $x885 $x57220) (or (<= (+ ?x335 ?x471 ?x373 ?x455 ?x1135 L_3) 0.0) $x56893) $x67675 (or $x858 (<= (+ ?x1147 ?x869 ?x362 ?x1429 L_0 ?x1097) 0.0)) (or $x858 (<= (+ ?x1147 S_4 (* (- 3.0) S_3) ?x1429 ?x1097) 0.0)) (or (<= (+ ?x1680 S_4 S_2 ?x1432 ?x1523) 0.0) $x56893) (or $x296 $x885 (<= (+ ?x1240 ?x1151 S_0 B ?x1143 ?x1483) 0.0)) (or $x885 (<= (+ ?x1151 ?x1147 S_4 B ?x1097 ?x1143) 0.0)) (or $x885 (<= (+ A_4 ?x1151 ?x1147 ?x1097 ?x1143 ?x412) 0.0) $x56756) (or $x864 (<= (+ ?x1411 ?x373 ?x3650 ?x1401 ?x1406) 0.0)) (or $x294 $x887 $x4276 $x56613) (or $x885 (not $x4276) (= ?x4302 0.0)) (or $x885 (<= (+ ?x1085 A_1 S_3 B ?x438 ?x1125) 0.0)) $x68589 $x141657 (or $x858 (<= (+ ?x1154 (* (- 2.0) S_3) ?x972 ?x1790 ?x1155) 0.0)) $x140780 $x140984 (or $x885 (<= (+ A_3 ?x1085 S_1 B ?x1125 ?x412) 0.0)) (or (<= (+ ?x1680 ?x1171 ?x384 ?x455 ?x1172 ?x1523) 0.0) $x56893) (or $x885 (= (+ ?x331 ?x1240 ?x339 L_2 ?x1483 L_4) 0.0) $x56613 $x56893) (or (<= (+ A_4 ?x1680 A_2 ?x425 L_3) 0.0) $x56756 $x56893) (or (<= (+ ?x1680 ?x1171 ?x869 ?x455 L_0 ?x1172 ?x1523) 0.0) $x56893) (or $x5435 $x56893) (or $x294 (= (+ ?x335 ?x471 ?x343 L_1 ?x455 ?x1135 L_3) 0.0) $x56893) (or $x885 $x887 (= (+ ?x335 ?x471 ?x343 L_1 ?x1135 L_3) 0.0) $x56893) $x140209 (or (<= (+ ?x335 ?x1154 ?x2371 ?x1429 ?x2372 ?x1155 L_3) 0.0) $x56893 $x57030) (or $x887 $x56613 $x56831 $x57030) (or $x282 (<= (+ ?x335 ?x471 ?x343 ?x438 L_3) 0.0) $x887 $x56893) (or $x887 (<= (+ A_3 ?x339 ?x343 L_2 S_0 L_1 ?x412) 0.0)) $x146037 (or (<= (+ ?x1682 A_1 ?x1740 ?x1432 ?x438 ?x1685) 0.0) $x2879 $x56893) (or $x56893 (<= (+ ?x335 A_1 ?x438 L_3) (- 10.0))) (or $x885 (<= (+ ?x331 ?x1240 ?x339 ?x425 L_4) 0.0) $x56613 $x57220) (or (<= (+ ?x2092 ?x1787 ?x373 ?x455 ?x1789 ?x2123) 0.0) $x56613) (or $x885 (<= (+ ?x1085 S_3 S_1 ?x1432 ?x1125) 0.0)) (or $x852 (<= (+ ?x471 ?x351 ?x373 ?x1429 ?x1135) 0.0)) $x69021 (<= (+ A_2 ?x351 ?x455 ?x425) (- 5.0)) $x140338 (or $x503 $x852 (<= (+ ?x2120 A_1 ?x1749 ?x1790 ?x438 ?x2097) 0.0)) $x142004 $x140971 (or $x885 (<= (+ ?x339 ?x869 ?x2619 B L_0 L_2) 0.0)) $x67224 (or $x852 $x10511) (or $x852 (<= (+ ?x1171 (* (- 2.0) S_4) ?x384 ?x1790 ?x1172) 0.0)) (or $x885 (<= (+ ?x339 S_1 B L_2) (- 5.0))) (or $x56756 $x56893 $x57030 $x57837) (or $x55629 $x56756 $x56893 $x57837) (or $x887 $x1033) (or $x858 (<= (+ ?x1147 ?x362 ?x384 ?x1429 ?x1097) 0.0)) (or $x887 (<= (+ ?x339 ?x343 L_2 S_3 S_0 B L_1) 0.0)) (or $x887 (<= (+ ?x335 ?x343 L_3 S_4 S_0 B L_1) 0.0)) (or $x858 (<= (+ ?x335 A_1 L_3 S_4 ?x362 ?x455 ?x438) 0.0)) $x140068 (or $x852 (<= (+ ?x471 ?x343 ?x351 L_1 ?x1429 ?x1135) 0.0)) (or $x885 (<= (+ ?x1085 (* 3.0 S_1) ?x972 ?x1432 ?x1125) 0.0)) (or $x885 (<= (+ ?x1151 S_4 ?x2619 ?x1684 ?x1143) 0.0)) (or $x2091 $x56613) (or $x2151 $x56613) (or $x56613 (<= (+ ?x331 S_3 B L_4) (- 5.0))) $x145713 $x139740 $x139770 $x67852 (or $x885 (<= (+ ?x335 ?x339 A_1 L_3 S_4 ?x438 L_2) 0.0)) $x144355 $x146135 (or $x887 (<= (+ ?x335 ?x343 ?x1703 ?x1432 L_1 L_3) 0.0) $x56893) $x72113 (or (<= (+ ?x331 ?x1240 ?x339 ?x425 ?x455 L_4) 0.0) $x56613 $x57220) $x139798 (or (= ?x9148 0.0) $x56613 (not $x58116) (not $x58524)) (or $x885 (<= (+ A_4 ?x1151 ?x2619 ?x1432 ?x1143 ?x412) 0.0) $x56756) (or $x885 (<= (+ A_4 ?x335 ?x339 L_3 S_1 L_2 ?x399) 0.0)) (or $x56613 (<= (+ ?x331 A_2 ?x425 L_4) (- 10.0))) (or (= (+ ?x331 ?x1240 ?x339 L_2 ?x455 ?x1483 L_4) 0.0) $x56613 $x56831) $x67141 (or $x852 $x15108 $x62493) (or $x885 $x895 (<= (+ A_4 ?x1151 ?x1147 ?x2418 ?x1143 ?x399) 0.0)) (or $x885 (<= (+ ?x335 ?x339 L_3 S_4 S_1 B L_2) 0.0)) (or $x858 (<= (+ ?x362 S_1) (- 5.0))) (or (<= (+ ?x2120 ?x1682 S_1 B ?x1685 ?x2097) 0.0) $x55629 $x56893) $x139757 (or $x864 (<= (+ A_4 ?x335 L_3 ?x373 S_0 ?x455 ?x399) 0.0)) $x140963 (or $x858 (<= (+ A_1 ?x362 ?x438) (- 5.0)) (not $x61763)) (or $x852 (<= (+ (* (- 2.0) S_4) ?x1525 ?x384) 0.0)) (or $x864 (<= (+ S_3 (* (- 3.0) S_2) ?x2368) 0.0)) (or $x858 (<= (+ S_4 (* (- 3.0) S_3) ?x2619) 0.0)) $x38904 (or $x864 (<= (+ ?x335 L_3 S_4 ?x373 S_0) 0.0)) $x63310 $x145967 (or (<= (+ ?x335 ?x343 L_1 ?x1703 B L_3) 0.0) $x56893) (or $x858 (<= (+ (* (- 2.0) S_3) (* 3.0 S_1) ?x972) 0.0)) (or $x858 (<= (+ ?x869 ?x362 ?x2619 L_0) 0.0)) $x140941 (or $x885 (<= (+ ?x335 ?x1361 L_3 S_4 ?x3650 ?x1359 ?x1415) 0.0) $x60696) (or $x885 $x6323 $x6419) (or (<= (+ ?x2108 (* 4.0 S_3) ?x384 ?x1684 ?x2099) 0.0) $x56613) (or $x858 (<= (+ (* (- (/ 1.0 2.0)) S_3) ?x3650) (- 5.0)) $x61763) (or $x56613 $x57324 $x62740) $x142020 (or (<= (+ ?x2092 ?x1240 ?x1483 S_2 ?x384 ?x1432 ?x2123) 0.0) $x39228 $x56613) (or $x852 (<= (+ ?x4052 ?x869 ?x4049 ?x1203 L_0 ?x3994) 0.0) $x54413) (or $x887 (<= (+ A_4 ?x3460 ?x3446 ?x1684 ?x3448 ?x399) 0.0)) $x139998 $x140424 $x139783 (or $x887 (<= (+ ?x339 ?x916 L_2 S_4 ?x2368 ?x1432 ?x1064) 0.0)) $x145589 (or $x885 $x9275 $x11598 $x56756) (or $x885 $x11598 $x59481) (or $x56146 $x56893 $x62493) $x142436 $x141990 (or $x2142 $x56613) (or $x858 (<= (+ ?x335 L_3 S_4 ?x362 S_1) 0.0)) (or (<= (+ ?x335 ?x2619 ?x972 B L_3) 0.0) $x23693 $x56893) $x142336 $x57219 $x141278 $x141736 (or $x885 $x11716) (or $x11214 $x56613 $x58116 $x59482) (or $x20674 $x56613 (not $x61781)) (or $x11214 $x20674 $x56613) $x69999 $x68364 (or $x864 (<= (+ ?x339 L_2 S_3 ?x373 S_0) 0.0)) (or $x864 $x6936) (or $x864 (<= (+ (* (/ 1.0 4.0) S_4) ?x373 ?x33612) 0.0)) (or $x864 (<= (+ A_3 ?x339 L_2 ?x373 S_0 ?x455 ?x412) 0.0)) (or $x864 (<= (+ ?x339 L_2 S_4 ?x1593 ?x2368) 0.0)) (or $x2879 $x6897 (<= (+ ?x1682 A_1 ?x438 ?x1740 ?x1684 ?x1685) 0.0) $x56893) $x69554 (or $x49943 (<= (+ ?x2608 ?x2606 ?x1359 ?x2610) (- 5.0)) $x56893) (or $x56146 $x56893 $x57781 (<= (+ ?x335 A_1 ?x438 B L_3) (- 10.0))) (or $x852 (<= (+ ?x624 ?x351 (* (/ 1.0 2.0) S_2) ?x1401 ?x1393) 0.0)) (or $x858 (<= (+ A_4 ?x335 ?x362 S_1 ?x455) 0.0) $x56756) (or (<= (+ ?x2079 ?x2118 S_0 B ?x2081 ?x2134) 0.0) $x55629 $x56893 $x57382) $x144206 (or $x887 $x6370) $x144761 (or $x858 (<= (+ ?x12055 ?x362 ?x34535 ?x6933 ?x12601) 0.0)) $x143447 (or $x1687 $x56893) $x67605 (or (<= (+ ?x1680 ?x869 ?x1525 ?x1432 L_0 ?x1523) 0.0) $x56893) (or $x852 (<= (+ ?x869 (* (- 2.0) S_4) ?x1525 L_0) 0.0)) (or $x503 $x852 (<= (+ ?x2120 A_1 ?x438 ?x1749 ?x1429 ?x2097) 0.0) $x33591) $x141157 $x142555 (or $x887 (<= (+ A_4 ?x339 ?x916 L_2 ?x2368 B ?x1064 ?x399) 0.0)) (or (<= (+ ?x1680 ?x1525 ?x384 ?x1432 ?x1523) 0.0) $x56893) $x140695 $x143855 (or $x56613 (<= (+ ?x331 A_1 ?x438 L_4) (- 15.0)) $x57324) $x143796 $x144061 (or $x56613 $x57324 $x62500 (<= (+ ?x9759 ?x34540 ?x6939 ?x12611) (- 5.0))) (or $x852 (<= (+ ?x4049 ?x2606) (- 5.0)) $x62500) (or $x864 (<= (+ ?x32692 ?x373 ?x33612 ?x33477 ?x33459) 0.0)) (or $x56613 $x57324 $x59437 $x62493) (or $x852 (<= (+ ?x1749 (* 4.0 S_2) ?x972) 0.0)) $x145237 $x142714 (or $x503 $x852 (<= (+ ?x11629 ?x351 ?x34540 ?x6813 ?x10229) 0.0)) $x142285 (or $x304 $x852 $x15108 $x62335) $x140936 $x56037 (or $x852 $x33778) $x55055 (or $x33047 $x56613) (or (<= (+ ?x2137 (* 5.0 S_3) ?x972 ?x5943 ?x2140) 0.0) $x56613) $x142577 (or (<= (+ ?x2108 ?x1787 ?x1789 S_2 ?x972 ?x1684 ?x2099) 0.0) $x33562 $x56613) $x140454 (or (not $x1457) $x29687 $x34546 $x56613) (or $x28738 (not $x39228) $x56613) $x706 $x34 (<= (+ ?x869 S_0 L_0) 0.0) (<= (+ ?x331 L_4 S_4) 0.0) $x1114 (<= (+ ?x339 S_2 L_2) 0.0) (<= (+ ?x335 S_3 L_3) 0.0) (<= (+ ?x343 S_1 L_1) 0.0))))))))))))))))))))))))))))))))))))))))))))))))))))))))))))))))))))))))))))))))))))))))))))))))))))))))))))))))))))))))))))))))))))))))))))))))))))))))))))))))))))))))))))))))))))))))))))))))))))))))))))))))))))))))))))))))))))))))))))))))))))))))))))))))))))))))))))))))))
(check-sat)
